min: 15*iron 7*rec_A 20*rec_B 10*rec_C 15*rec_D 20*lim_A 20*lim_B 20*lim_C 20*lim_D;
1*iron     1*rec_A    1*rec_B    1*rec_C    1*rec_D    =    1;
100*iron   92*rec_A   85*rec_B   95*rec_C   85*rec_D   <=   92;
100*iron   92*rec_A   85*rec_B   95*rec_C   85*rec_D   >=   87;
0*iron     3*rec_A    3*rec_B    1*rec_C    0*rec_D    >=   2;
0*iron     3*rec_A    3*rec_B    1*rec_C    0*rec_D    <=   3;
0*iron     2*rec_A    4*rec_B    2*rec_C    1*rec_D    >=   1;
0*iron     2*rec_A    4*rec_B    2*rec_C    1*rec_D    <=   3;
0*iron     0*rec_A    7*rec_B    2*rec_C    4*rec_D    >=   2;
0*iron     0*rec_A    7*rec_B    2*rec_C    4*rec_D    <=   4;
0*iron     3*rec_A    0*rec_B    0*rec_C    10*rec_D   >=   1;
0*iron     3*rec_A    0*rec_B    0*rec_C    10*rec_D   <=   4;
1*rec_A   -99999*lim_A   <   0.2;
1*rec_B   -99999*lim_B   <   0.2;
1*rec_C   -99999*lim_C   <   0.2;
1*rec_D   -99999*lim_D   <   0.2;
int lim_A;
int lim_B;
int lim_C;
int lim_D;
